
Gurobi 12.0.0 (win64) logging started Mon May  4 20:20:03 2026

Set parameter LogFile to value "C:\Users\Asus\Documents\GitHub\logistics-model2\internal-logistics-model2\results\SR_SV_RD\case1\result_SR_SV_RD_case1_P5_eps9999_2026_05_04_20_20.log"
Gurobi Optimizer version 12.0.0 build v12.0.0rc1 (win64 - Windows 10.0 (19045.2))

CPU model: 12th Gen Intel(R) Core(TM) i7-12650H, instruction set [SSE2|AVX|AVX2]
Thread count: 10 physical cores, 16 logical processors, using up to 16 threads

Non-default parameters:
TimeLimit  600
MIPGap  0.01
Presolve  2

Optimize a model with 2717 rows, 813 columns and 13589 nonzeros
Model fingerprint: 0x556d1a65
Variable types: 133 continuous, 680 integer (655 binary)
Coefficient statistics:
  Matrix range     [1e+00, 5e+02]
  Objective range  [1e-03, 1e+00]
  Bounds range     [1e+00, 3e+01]
  RHS range        [1e+00, 1e+04]
Presolve removed 2298 rows and 665 columns
Presolve time: 0.01s
Presolved: 419 rows, 148 columns, 2061 nonzeros
Variable types: 33 continuous, 115 integer (105 binary)
Root relaxation presolve removed 12 rows and 0 columns
Root relaxation presolved: 407 rows, 159 columns, 2039 nonzeros


Root relaxation: objective 1.500000e-02, 90 iterations, 0.00 seconds (0.00 work units)

    Nodes    |    Current Node    |     Objective Bounds      |     Work
 Expl Unexpl |  Obj  Depth IntInf | Incumbent    BestBd   Gap | It/Node Time

     0     0    0.01500    0   16          -    0.01500      -     -    0s
     0     0    0.01500    0   27          -    0.01500      -     -    0s
     0     0    0.01500    0   29          -    0.01500      -     -    0s
H    0     0                     101.1910000    0.01500   100%     -    0s
     0     0    0.01500    0   20  101.19100    0.01500   100%     -    0s
     0     0    0.01500    0   24  101.19100    0.01500   100%     -    0s
H    0     0                      99.2030000    0.02649   100%     -    0s
     0     0    0.02649    0   29   99.20300    0.02649   100%     -    0s
     0     0    0.02700    0   28   99.20300    0.02700   100%     -    0s
     0     0    0.02904    0   37   99.20300    0.02904   100%     -    0s
     0     0    0.02938    0   35   99.20300    0.02938   100%     -    0s
     0     0    0.04182    0   36   99.20300    0.04182   100%     -    0s
     0     0    0.04584    0   36   99.20300    0.04584   100%     -    0s
     0     0    0.05566    0   37   99.20300    0.05566   100%     -    0s
H    0     0                      86.1210000    0.05635   100%     -    0s
     0     0    0.05635    0   42   86.12100    0.05635   100%     -    0s
     0     0    0.05778    0   40   86.12100    0.05778   100%     -    0s
     0     0    0.05789    0   40   86.12100    0.05789   100%     -    0s
     0     0    0.05835    0   46   86.12100    0.05835   100%     -    0s
     0     0    0.05844    0   47   86.12100    0.05844   100%     -    0s
     0     0    0.05892    0   45   86.12100    0.05892   100%     -    0s
     0     0    0.05900    0   44   86.12100    0.05900   100%     -    0s
     0     0    0.05900    0   45   86.12100    0.05900   100%     -    0s
     0     0    0.05909    0   46   86.12100    0.05909   100%     -    0s
     0     0    0.05909    0   44   86.12100    0.05909   100%     -    0s
     0     0    0.05909    0   43   86.12100    0.05909   100%     -    0s
     0     2    0.05909    0   43   86.12100    0.05909   100%     -    0s
H   71    74                      85.1390000    0.06219   100%  24.3    0s
H  255   260                      84.1430000    0.06219   100%  22.0    0s
H  555   480                      82.1410000    0.06391   100%  18.0    0s
H  612   494                      81.1360000    0.06391   100%  17.5    0s
H 2241  1298                      80.1400000    0.07112   100%  14.9    0s
H 2428  1298                      80.1320000    0.07115   100%  15.0    0s
H 3245  1575                      79.1190000    0.07268   100%  15.0    0s
H 3253  1501                      77.1150000    0.07268   100%  14.9    0s
* 3757  1495              26      77.1020000    0.07268   100%  19.0    0s
H 7360   798                      77.0920000    0.08365   100%  31.1    1s
H 8344   681                      77.0910000    0.08902   100%  32.9    1s

Cutting planes:
  Learned: 11
  Gomory: 10
  Cover: 10
  Implied bound: 66
  Clique: 1
  MIR: 137
  StrongCG: 15
  Flow cover: 301
  Inf proof: 27
  Zero half: 4
  RLT: 59
  Relax-and-lift: 40
  PSD: 5

Explored 10550 nodes (384688 simplex iterations) in 2.27 seconds (2.37 work units)
Thread count was 16 (of 16 available processors)

Solution count 10: 77.091 77.092 77.102 ... 84.143

Optimal solution found (tolerance 1.00e-02)
Best objective 7.709100000000e+01, best bound 7.709100000000e+01, gap 0.0000%
